tsp_instances/TSP20/instance60.tsp
NODE_COORD_SECTION
0 200 48
1 20 32
2 75 62
3 198 178
4 63 130
5 114 119
6 174 32
7 88 20
8 140 183
9 160 131
10 116 101
11 12 24
12 48 62
13 164 20
14 48 105
15 154 38
16 183 95
17 123 5
18 110 176
19 61 198
