tsp_instances/TSP20/instance60.opt.tour
TOUR_SECTION
1
7
14
16
18
8
12
2
13
3
15
5
20
19
9
4
10
6
11
17
-1